# Objective value = 3.0031793660124208e+02
x[0] 0
x[1] 0
x[2] 1
x[3] 9.9999945722573469e-01
x[4] 0
x[5] 0
x[6] 1
x[7] 1
x[8] 1
x[9] 3.4117215263750675e-07
x[10] 1
x[11] 0
x[12] 1
x[13] 0
x[14] 3.4116531931460221e-07
x[15] 1
x[16] 1
x[17] 0
x[18] 1
x[19] 1
x[20] 1
x[21] 1.7056637875223420e-07
x[22] 1
x[23] -1.70658624365592e-07
x[24] 0
x[25] 1
x[26] 1
x[27] 0
x[28] 1
x[29] 1
x[30] 0
x[31] 0
x[32] 1
x[33] 9.9999966201608426e-01
x[34] -1.7065862434328949e-07
x[35] 1
x[36] 1
x[37] 0
x[38] 1
x[39] 1
x[40] 1
x[41] 9.9999983267470871e-01
x[42] 0
x[43] 1
x[44] 0
x[45] 1.7029880704233605e-07
x[46] 0
x[47] 0
x[48] -4.1354134344520029e-07
x[49] 1.7034571328434690e-07
x[50] 1
x[51] 1
x[52] 1
x[53] 1.7051457693968018e-07
x[54] 1
x[55] 0
x[56] 0
x[57] 0
x[58] 1
x[59] 0
x[60] 0
x[61] 1
x[62] 0.999999798542984
x[63] 1
x[64] 0
x[65] 0
x[66] 0
x[67] 9.9999966201608448e-01
x[68] 1
x[69] 1.0000001705736976e+00
x[70] 1
x[71] 1
x[72] 0.999999798542984
x[73] 1
x[74] 1
x[75] 0
x[76] 0
x[77] 1
x[78] 1
x[79] 0
x[80] 0
x[81] 1
x[82] 1.7058109313887823e-07
x[83] 1
x[84] 1
x[85] 1
x[86] 1.0000001704728754e+00
x[87] 0
x[88] 0
x[89] 1
x[90] 0
x[91] 1
x[92] 0
x[93] 1
x[94] 0
x[95] 0
x[96] 1
x[97] 0
x[98] 1
x[99] 1
x[100] 0
x[101] -4.1687467677853363e-07
x[102] 9.9999983275224025e-01
x[103] 1
x[104] 0
x[105] 0
x[106] 1
x[107] 1
x[108] 1
x[109] 0
x[110] -1.7065862424975437e-07
x[111] 1
x[112] 0
x[113] -4.1687467677853363e-07
x[114] 1
x[115] 9.9999965260443613e-01
x[116] 0
x[117] 0
x[118] 3.4123329797792054e-07
x[119] 0
x[120] 1
x[121] 1
x[122] 0
x[123] 1
x[124] 1
x[125] 0
x[126] 0
x[127] 0
x[128] 0
x[129] 0
x[130] 1
x[131] 0
x[132] 1
x[133] 0
x[134] 0
x[135] 9.9999958312532333e-01
x[136] 1.0000001705882657e+00
x[137] 1
x[138] 0
x[139] 1
x[140] 0
x[141] 1
x[142] 0
x[143] 0
x[144] 1
x[145] 0
x[146] 0
x[147] 1
x[148] 0
x[149] 0
x[150] 1
x[151] 1
x[152] 1
x[153] 0
x[154] 0
x[155] 1
x[156] 0
x[157] 0
x[158] 0
x[159] 1
x[160] 1
x[161] 0
x[162] 1
x[163] 1
x[164] 1
x[165] 0
x[166] 0
x[167] 1
x[168] 0
x[169] 1
x[170] 1
x[171] 0
x[172] 0
x[173] 1
x[174] 3.4082513916560321e-07
x[175] 1
x[176] 0
x[177] 0
x[178] -1.7065862434328949e-07
x[179] 0
x[180] 0
x[181] 1
x[182] 1
x[183] 0
x[184] 1
x[185] 1
x[186] 0
x[187] 0
x[188] 9.9999945389240119e-01
x[189] 0
x[190] 0
x[191] 0
x[192] 0
x[193] 0
x[194] 3.4125273664524507e-07
x[195] 9.9999983267470871e-01
x[196] 1
x[197] 0
x[198] 1
x[199] 0
x[200] 0
x[201] 0
x[202] 1
x[203] 0
x[204] 1
x[205] 0
x[206] 0
x[207] 0
x[208] 0
x[209] 1
x[210] 1
x[211] 1
x[212] 0
x[213] 0
x[214] 1
x[215] 0
x[216] 0
x[217] 0
x[218] 0
x[219] -4.1687467677853363e-07
x[220] 0
x[221] 0
x[222] 0
x[223] 0
x[224] 0
x[225] 0
x[226] 0
x[227] 9.9999966201608426e-01
x[228] 1
x[229] 1
x[230] 1
x[231] 1
x[232] 0
x[233] 1.0000001705701047e+00
x[234] 1
x[235] 0
x[236] 1
x[237] 0
x[238] 1
x[239] 1
x[240] 1
x[241] 0
x[242] 1
x[243] 1
x[244] 0
x[245] 0
x[246] 1
x[247] 0
x[248] 1
x[249] 0
x[250] 1
x[251] 5.4588142009204175e-07
x[252] 1
x[253] 1
x[254] 0
x[255] 1
x[256] 0
x[257] 0
x[258] 1.7057135000143845e-07
x[259] 1
x[260] 1
x[261] 0
x[262] 1
x[263] 0
x[264] 0
x[265] 0
x[266] 0
x[267] 0
x[268] 1
x[269] 1
x[270] 0
x[271] 0
x[272] 3.4115228247640857e-07
x[273] 1
x[274] 0
x[275] 1.0000004166739414e+00
x[276] 1
x[277] 0
x[278] 0
x[279] 0
x[280] 0
x[281] 1
x[282] 1.7056516588239073e-07
x[283] 0
x[284] 0
x[285] 1
x[286] 1
x[287] 1
x[288] 1
x[289] 0
x[290] 0
x[291] 0
x[292] 0
x[293] 0
x[294] 0
x[295] 0
x[296] 1
x[297] 0
x[298] 0
x[299] 0
x[300] 0
x[301] 0
x[302] 0
x[303] 1
x[304] 0
x[305] 1
x[306] 0
x[307] 1
x[308] 1
x[309] 0
x[310] 1
x[311] 1
x[312] 1.0000001705466022e+00
x[313] 0
x[314] 0
x[315] 0
x[316] 1
x[317] 1
x[318] 1
x[319] 1
x[320] 1
x[321] -4.1354134344520029e-07
x[322] 0
x[323] 1
x[324] 1.70607345619936e-07
x[325] 1
x[326] 0
x[327] 0
x[328] 0
x[329] 1
x[330] 0
x[331] 0
x[332] 0
x[333] 3.4124495071435060e-07
x[334] 1
x[335] 9.9999966201608426e-01
x[336] 1
x[337] 3.4122965557726604e-07
x[338] 0
x[339] 1
x[340] 1
x[341] 1
x[342] 1
x[343] 0
x[344] 1
x[345] 3.4123661251760997e-07
x[346] 1
x[347] 1
x[348] 1.0000004168063716e+00
x[349] 1
x[350] 1
x[351] 1
x[352] 0
x[353] 1
x[354] 0
x[355] 1
x[356] 1
x[357] 1
x[358] 0
x[359] 0
x[360] 0
x[361] 1
x[362] 0
x[363] 1
x[364] 1.0000001701295342e+00
x[365] -4.1687467677853363e-07
x[366] 1
x[367] 0
x[368] 0
x[369] 0
x[370] 1
x[371] 1
x[372] 1
x[373] 1
x[374] 1
x[375] 0
x[376] 0
x[377] 0
x[378] 1
x[379] -1.6732529100995615e-07
x[380] 0
x[381] 0
x[382] 1
x[383] 1
x[384] 1
x[385] 0
x[386] 1
x[387] 0
x[388] 0
x[389] 0
x[390] 0
x[391] 1
x[392] 0
x[393] 1
x[394] 1
x[395] 0
x[396] 0
x[397] 0
x[398] 1
x[399] 0
x[400] 0
x[401] -4.1354134344520029e-07
x[402] 1
x[403] 0
x[404] 1
x[405] 1
x[406] 1
x[407] 0
x[408] 0
x[409] 1
x[410] 1
x[411] 0
x[412] -1.7065862434328949e-07
x[413] 1
x[414] 1
x[415] 1
x[416] -4.1687467677853363e-07
x[417] 9.9999983267470871e-01
x[418] 0
x[419] 1
x[420] 1.7030506113752996e-07
x[421] 1
x[422] 0
x[423] 1
x[424] 1
x[425] 1
x[426] 2.0351312271999219e-07
x[427] 1
x[428] 0
x[429] 0
x[430] 1
x[431] 1
x[432] 1
x[433] 1
x[434] 1
x[435] 1
x[436] 1
x[437] 0
x[438] 0
x[439] 2.0446490090981564e-07
x[440] 0
x[441] 3.4126443634726532e-07
x[442] 0
x[443] 1
x[444] 0
x[445] -1.6732529100995615e-07
x[446] 0
x[447] 0
x[448] 1
x[449] 1
x[450] 1
x[451] 1
x[452] 0
x[453] 0
x[454] 0
x[455] 1.7036048566651705e-07
x[456] 0
x[457] 0
x[458] 1
x[459] 1
x[460] 1
x[461] 1
x[462] 1
x[463] 1
x[464] 1
x[465] 1
x[466] 1
x[467] 1
x[468] 1
x[469] 1
x[470] 1
x[471] 1
x[472] 0
x[473] 0
x[474] 1.7059246115459294e-07
x[475] 3.4121391927569392e-07
x[476] 0
x[477] 0
x[478] 0
x[479] 0
x[480] 0
x[481] 1
x[482] -1.7065862434328949e-07
x[483] 1
x[484] 1
x[485] 0
x[486] 1.7060159324691687e-07
x[487] 0
x[488] 1
x[489] 0
x[490] 1
x[491] 0
x[492] 1
x[493] 1
x[494] 1
x[495] 1
x[496] 1
x[497] 1
x[498] 0
x[499] 0
x[500] 0
x[501] 0
x[502] 1
x[503] 0
x[504] 9.9999966201608426e-01
x[505] 0
x[506] 1
x[507] 0
x[508] 1
x[509] 1
x[510] 1
x[511] 1
x[512] 0
x[513] 0
x[514] 0
x[515] 1
x[516] 0
x[517] 0
x[518] 0
x[519] 1
x[520] 9.9999983267470915e-01
x[521] 1
x[522] 0
x[523] 0
x[524] 1
x[525] 0
x[526] 0
x[527] 1
x[528] 1
x[529] 1
x[530] 0
x[531] 1
x[532] 1
x[533] 0
x[534] 1.7048463067797265e-07
x[535] 0
x[536] 4.1681308859539313e-07
x[537] 0
x[538] 0
x[539] 1
x[540] 3.4122656476708089e-07
x[541] 0
x[542] 1
x[543] 1
x[544] 1
x[545] 0
x[546] 1
x[547] 1
x[548] 1
x[549] 0
x[550] 1
x[551] 1
x[552] 0
x[553] 0
x[554] 0
x[555] 0
x[556] 0
x[557] 0
x[558] 0
x[559] -2.0843733836151124e-07
x[560] 1
x[561] 1
x[562] 1
x[563] 5.4601826340013255e-07
x[564] 0
x[565] 1
x[566] 9.9999958645865661e-01
x[567] 0
x[568] 0
x[569] 9.9999983267470871e-01
x[570] 1
x[571] 1
x[572] 1
x[573] 1
x[574] 0
x[575] -4.1687467677853363e-07
x[576] 0
x[577] 1
x[578] 1
x[579] 0
x[580] 1
x[581] 1
x[582] 0
x[583] 0
x[584] 0
x[585] 1
x[586] 1
x[587] 1
x[588] 1
x[589] 1
x[590] 1
x[591] 1
x[592] 0
x[593] 1
x[594] -4.1687467672044644e-07
x[595] 0
x[596] 0
x[597] 0
x[598] 0
x[599] 1
x[600] 1
x[601] -4.1687467677853363e-07
x[602] 1
x[603] 9.9999983276322868e-01
x[604] 1.0000001705866279e+00
x[605] 1
x[606] 1
x[607] 1
x[608] 9.9999966210003532e-01
x[609] 1
x[610] 0
x[611] 1
x[612] 1
x[613] 1
x[614] 1
x[615] 0
x[616] 0
x[617] 0
x[618] 1
x[619] 0
x[620] -4.1687467681194839e-07
x[621] 9.9999965868275087e-01
x[622] 1
x[623] 1
x[624] 0
x[625] 0
x[626] 0
x[627] 1
x[628] 1
x[629] 0
x[630] 0
x[631] 0
x[632] 1
x[633] 0
x[634] 0
x[635] 0
x[636] 0
x[637] 0
x[638] 0
x[639] 0
x[640] 0
x[641] 0
x[642] 1.0000001706015405e+00
x[643] 0
x[644] 0
x[645] 0
x[646] 1.9413741509438656e-07
x[647] 0
x[648] 0
x[649] 9.9999965868275109e-01
x[650] 0
x[651] 1
x[652] 0
x[653] 0
x[654] 1.0000004167677201e+00
x[655] 9.9999983267470871e-01
x[656] 0
x[657] -4.1687467677853363e-07
x[658] 0
x[659] 1
x[660] 0
x[661] 0
x[662] 1
x[663] 1
x[664] 0
x[665] 1
x[666] 1
x[667] 0
x[668] 1
x[669] 0
x[670] 1
x[671] 0
x[672] 1
x[673] 1
x[674] 1
x[675] 0
x[676] 3.4122877377673439e-07
x[677] 3.4122691302236650e-07
x[678] 1
x[679] 1.0000001705359884e+00
x[680] 0
x[681] 0
x[682] 0
x[683] 1
x[684] 1
x[685] 1
x[686] -3.4131724875038909e-07
x[687] 0
x[688] 9.9999966210676849e-01
x[689] 1
x[690] 1
x[691] 0
x[692] -4.1354134344520029e-07
x[693] 0
x[694] 0
x[695] 0
x[696] 1
x[697] 0
x[698] 1
x[699] 0
x[700] 0
x[701] 1
x[702] 0
x[703] -4.1354134344520029e-07
x[704] 0
x[705] 0
x[706] 0
x[707] 1
x[708] 1.0000004168219863e+00
x[709] 0
x[710] 1
x[711] 0
x[712] 1
x[713] 1
x[714] 1
x[715] 1
x[716] 1
x[717] 0
x[718] 1.0000001705916102e+00
x[719] 0
x[720] 1.0000004167791787e+00
x[721] 1
x[722] 1
x[723] 0
x[724] 0
x[725] 1
x[726] 0
x[727] 1
x[728] 1.0000004168128656e+00
x[729] 1
x[730] 1
x[731] 0
x[732] 0
x[733] -1.7065862424975437e-07
x[734] 9.9999966201608426e-01
x[735] 0
x[736] 1
x[737] 1
x[738] 0
x[739] 1
x[740] 0
x[741] 1
x[742] 1
x[743] 1
x[744] 1
x[745] 1.0000001705901855e+00
x[746] 0
x[747] 1
x[748] 0
x[749] 1.0000001705603252e+00
x[750] 1
x[751] 1
x[752] 0
x[753] -1.6723677138066806e-07
x[754] 0
x[755] 0
x[756] 1
x[757] 0
x[758] 1
x[759] 1
x[760] 9.9999979520965054e-01
x[761] 1.7048259536822583e-07
x[762] 1
x[763] 0
x[764] 9.9999966201608426e-01
x[765] 9.9999966201608426e-01
x[766] 0
x[767] 3.4122827834575762e-07
x[768] 1
x[769] 1
x[770] 1
x[771] 1
x[772] 1
x[773] 1
x[774] 0
x[775] 1
x[776] 1.0000004168115677e+00
x[777] 0
x[778] 1
x[779] 1
x[780] 2.0470190325512105e-07
x[781] 1
x[782] 0
x[783] 0
x[784] 0
x[785] 1
x[786] 0
x[787] 0
x[788] -4.1687467677853363e-07
x[789] 0
x[790] 0
x[791] 1
x[792] 9.9999966201608448e-01
x[793] 2.0469210192630924e-07
x[794] 0
x[795] 0
x[796] 1
x[797] 1
x[798] -1.6725685231936003e-07
x[799] 1
x[800] 0
x[801] 1
x[802] 0
x[803] 0
x[804] 1
x[805] 0
x[806] 0
x[807] 0
x[808] 0
x[809] 0
x[810] 1.0000001706065822e+00
x[811] 0
x[812] 0
x[813] 0
x[814] 0.999999662105055
x[815] 0
x[816] 1
x[817] 0
x[818] 0
x[819] 0
x[820] 9.9999966210505509e-01
x[821] -3.4131724890680431e-07
x[822] 0
x[823] 0
x[824] 1
x[825] 1
x[826] 1
x[827] 1
x[828] 0
x[829] 1
x[830] 0
x[831] 0
x[832] 1
x[833] 0
x[834] 1
x[835] 1
x[836] 9.9999979854298315e-01
x[837] 1
x[838] 1.0000001705091954e+00
x[839] 9.9999982934137532e-01
x[840] 0
x[841] 1
x[842] 1
x[843] 0
x[844] 1
x[845] 0
x[846] 0
x[847] 1
x[848] 0
x[849] 1
x[850] 0
x[851] 0
x[852] 1
x[853] 1
x[854] -1.7065862424975437e-07
x[855] 0
x[856] 0
x[857] 1
x[858] 1
x[859] 0
x[860] 1
x[861] 1
x[862] 1.0000001705896224e+00
x[863] 1
x[864] 0
x[865] 0
x[866] 0
x[867] 1.0000004165686498e+00
x[868] 3.4125304563682758e-07
x[869] 1.0000004167614438e+00
x[870] 1
x[871] 0
x[872] 3.4125866021865995e-07
x[873] 1
x[874] 1
x[875] 1
x[876] 0
x[877] 1
x[878] 0
x[879] 1
x[880] 0
x[881] 2.0471568556339244e-07
x[882] 0
x[883] 1
x[884] 0
x[885] 0
x[886] 1
x[887] 1
x[888] 0
x[889] 1
x[890] 0
x[891] 1
x[892] 0
x[893] 0
x[894] 0
x[895] 0
x[896] 2.0471844268703897e-07
x[897] 0
x[898] 1
x[899] 1
x[900] 0
x[901] 0
x[902] 1
x[903] 1
x[904] 1
x[905] 1
x[906] 0
x[907] 0
x[908] 3.4117870554452890e-07
x[909] 0
x[910] 1
x[911] 0
x[912] 1
x[913] 0
x[914] 1
x[915] 1
x[916] 1
x[917] 0
x[918] 0
x[919] 1.0000004167842520e+00
x[920] 1.7058810976107267e-07
x[921] 1.0000001702973464e+00
x[922] 0
x[923] 0
x[924] -1.6732529091642103e-07
x[925] 1
x[926] 0
x[927] 1
x[928] 0
x[929] 1
x[930] 3.4726660595595835e-07
x[931] 0
x[932] 0
x[933] 0
x[934] 0
x[935] 1
x[936] 0
x[937] 1
x[938] 0
x[939] 1.0000001702622576e+00
x[940] 1
x[941] 0
x[942] 1
x[943] 9.9999966194253875e-01
x[944] 1
x[945] 1
x[946] 1
x[947] 0
x[948] 9.9999983275224025e-01
x[949] 1
x[950] 1.00000041681359
x[951] 0
x[952] 0
x[953] 0
x[954] 0
x[955] 1
x[956] -1.6575964485772314e-07
x[957] 1
x[958] 0
x[959] 1
x[960] 1
x[961] -1.7065862434328949e-07
x[962] 0
x[963] 1
x[964] 1.0000004167723724e+00
x[965] 1
x[966] 3.41196364302645e-07
x[967] 1
x[968] 0
x[969] 0
x[970] 0
x[971] 1.0000001682975062e+00
x[972] 0
x[973] 5.4592951788297781e-07
x[974] 0
x[975] 0
x[976] 1
x[977] 1
x[978] 1
x[979] 0
x[980] 1
x[981] 0
x[982] 1
x[983] 1
x[984] 0
x[985] 1
x[986] 1
x[987] 1
x[988] 1
x[989] 0
x[990] 0
x[991] 0
x[992] 1
x[993] 1
x[994] 1
x[995] 1
x[996] 1
x[997] 1
x[998] 1
x[999] 0
